mixintcount/benchmarks/random_v2l/8_8_7079.in
32 10
#	x1	x2	x3	x4	x5	x6	x7	x8;		0 = Real; 1 = Integer
	1	1	1	1	1	1	1	1
1	2	-9	-7	-10	-9	-8	8	-2	4574
1	-7	-5	-5	-1	2	5	3	-8	2874
1	6	8	-3	7	1	1	-5	8	6797
1	4	-6	4	-4	4	3	-1	4	-2190
1	-1	-1	-10	-5	3	-5	0	-9	504
1	-7	5	7	2	-2	4	9	-8	4711
1	0	-3	-10	-1	10	-8	-10	-5	3436
1	4	3	-3	-4	-9	7	-6	-6	2579
1	-1	5	-2	-9	8	-10	7	-1	3421
1	-2	-4	-1	-1	4	7	0	-8	6857
1	0	-9	9	-6	5	1	-1	9	-5246
1	-5	-8	5	2	-1	-1	9	0	-3411
1	9	-4	2	-5	3	6	5	-9	6456
1	-1	-1	1	-8	8	0	-10	10	5773
1	2	-2	-8	-8	2	-8	5	-9	1741
1	-6	10	-9	-4	7	-5	6	10	2466
1	1	0	0	0	0	0	0	0	7079
1	-1	0	0	0	0	0	0	0	7079
1	0	1	0	0	0	0	0	0	7079
1	0	-1	0	0	0	0	0	0	7079
1	0	0	1	0	0	0	0	0	7079
1	0	0	-1	0	0	0	0	0	7079
1	0	0	0	1	0	0	0	0	7079
1	0	0	0	-1	0	0	0	0	7079
1	0	0	0	0	1	0	0	0	7079
1	0	0	0	0	-1	0	0	0	7079
1	0	0	0	0	0	1	0	0	7079
1	0	0	0	0	0	-1	0	0	7079
1	0	0	0	0	0	0	1	0	7079
1	0	0	0	0	0	0	-1	0	7079
1	0	0	0	0	0	0	0	1	7079
1	0	0	0	0	0	0	0	-1	7079
